NAME: tsp10_21
COMMENT: 10-tsp problem (Padberg/Rinaldi)
TYPE: TSP
DIMENSION: 10
EDGE_WEIGHT_TYPE : EUC_2D
NODE_COORD_SECTION
1.00 4.69 6.86
2.00 22.51 28.47
3.00 12.24 8.44
4.00 35.80 34.23
5.00 10.80 16.16
6.00 36.70 15.25
7.00 1.57 11.97
8.00 29.30 26.61
9.00 13.97 15.11
10.00 30.53 14.10
